Route #1: 67 26 12 40 17 51 16 63 33 1 73
Route #2: 2 62 22 64 42 43 41 56 23 49 24 3 44
Route #3: 32 50 18 55 25 9 39 72 31 10 58
Route #4: 35 14 59 66 65 38 11 53 7
Route #5: 19 54 13 57 15 20 70 60 71 69 21 61 28 74
Route #6: 30 48 47 36 37 5 29 45 27 52 8
Route #7: 6 68 75 4 34 46
Cost 745